
Gurobi 11.0.3 (linux64) logging started Mon Aug 25 16:47:49 2025

Set parameter LogFile to value "/home/yihong/Coding/OR_SUC/SUC_epstheta_results_bigM100000_thread4/case24_ieee_rts_theta0.001_epsilon0.1_gurobi_seed290000_num_gen100_N_WDR50_load_scaling_factor1_proposed_eps_T2quadra_cost_bc1.03.txt"
Set parameter TimeLimit to value 3600
Gurobi Optimizer version 11.0.3 build v11.0.3rc0 (linux64 - "Ubuntu 20.04.6 LTS")

CPU model: AMD EPYC 7532 32-Core Processor, instruction set [SSE2|AVX|AVX2]
Thread count: 64 physical cores, 128 logical processors, using up to 4 threads

Academic license 2399124 - for non-commercial use only - registered to yi___@ed.ac.uk
Optimize a model with 4290 rows, 2531 columns and 107910 nonzeros
Model fingerprint: 0x024244db
Model has 200 quadratic constraints
Variable types: 2331 continuous, 200 integer (200 binary)
Coefficient statistics:
  Matrix range     [3e-04, 2e+03]
  QMatrix range    [2e-03, 8e-03]
  QLMatrix range   [2e-01, 6e+01]
  Objective range  [1e+00, 1e+00]
  Bounds range     [1e+00, 1e+00]
  RHS range        [5e-02, 9e+03]
Presolve removed 3654 rows and 1240 columns
Presolve time: 0.03s
Presolved: 636 rows, 1291 columns, 4026 nonzeros
Presolved model has 200 quadratic constraint(s)
Variable types: 1091 continuous, 200 integer (200 binary)

Root relaxation: objective 2.117594e+03, 513 iterations, 0.00 seconds (0.00 work units)

    Nodes    |    Current Node    |     Objective Bounds      |     Work
 Expl Unexpl |  Obj  Depth IntInf | Incumbent    BestBd   Gap | It/Node Time

     0     0 2117.59355    0    2          - 2117.59355      -     -    0s
H    0     0                    71341.562664 2117.59355  97.0%     -    0s
     0     0 34561.0703    0    2 71341.5627 34561.0703  51.6%     -    0s
     0     0 63090.9610    0    6 71341.5627 63090.9610  11.6%     -    0s
     0     0 63091.7725    0    6 71341.5627 63091.7725  11.6%     -    0s
     0     0 63092.3003    0    6 71341.5627 63092.3003  11.6%     -    0s
     0     0 63092.3155    0    6 71341.5627 63092.3155  11.6%     -    0s
     0     2 63092.3155    0    6 71341.5627 63092.3155  11.6%     -    0s
H   21    20                    63097.803857 63094.3676  0.01%   7.7    0s
*   21    20               5    63097.803857 63094.3676  0.01%   7.8    0s

Explored 23 nodes (1390 simplex iterations) in 0.29 seconds (0.16 work units)
Thread count was 4 (of 128 available processors)

Solution count 2: 63097.8 71341.6 

Optimal solution found (tolerance 1.00e-03)
Warning: max constraint violation (4.4596e-09) exceeds tolerance
Best objective 6.309780385740e+04, best bound 6.309436756159e+04, gap 0.0054%

Gurobi 11.0.3 (linux64) logging started Mon Aug 25 16:47:49 2025

Set parameter LogFile to value "/home/yihong/Coding/OR_SUC/SUC_epstheta_results_bigM100000_thread4/case24_ieee_rts_theta0.001_epsilon0.1_gurobi_seed290000_num_gen100_N_WDR50_load_scaling_factor1_proposed_eps_T2quadra_cost_bc1.03.txt"
Set parameter TimeLimit to value 3600
Gurobi Optimizer version 11.0.3 build v11.0.3rc0 (linux64 - "Ubuntu 20.04.6 LTS")

CPU model: AMD EPYC 7532 32-Core Processor, instruction set [SSE2|AVX|AVX2]
Thread count: 64 physical cores, 128 logical processors, using up to 4 threads

Academic license 2399124 - for non-commercial use only - registered to yi___@ed.ac.uk
Optimize a model with 4290 rows, 2532 columns and 108479 nonzeros
Model fingerprint: 0xeb463967
Model has 201 quadratic constraints
Variable types: 2332 continuous, 200 integer (200 binary)
Coefficient statistics:
  Matrix range     [3e-04, 2e+03]
  QMatrix range    [2e-03, 5e+01]
  QLMatrix range   [2e-01, 6e+01]
  Objective range  [1e+00, 1e+00]
  Bounds range     [1e-01, 1e+00]
  RHS range        [1e+00, 6e+04]
  QRHS range       [5e-02, 5e-02]
Presolve removed 3468 rows and 1148 columns
Presolve time: 0.03s
Presolved: 1024 rows, 1584 columns, 6077 nonzeros
Presolved model has 200 quadratic constraint(s)
Presolved model has 1 bilinear constraint(s)

Solving non-convex MIQCP

Variable types: 1380 continuous, 204 integer (204 binary)

Root relaxation: objective 1.482790e-05, 1357 iterations, 0.02 seconds (0.02 work units)

    Nodes    |    Current Node    |     Objective Bounds      |     Work
 Expl Unexpl |  Obj  Depth IntInf | Incumbent    BestBd   Gap | It/Node Time

     0     0    0.00001    0    3          -    0.00001      -     -    0s
     0     0    0.00001    0    3          -    0.00001      -     -    0s
     0     0    0.00001    0    3          -    0.00001      -     -    0s
     0     0    0.00001    0    3          -    0.00001      -     -    0s
     0     0    0.00001    0    3          -    0.00001      -     -    0s
H    0     0                       0.0002685    0.00001  94.5%     -    0s
H    0     0                       0.0002562    0.00001  94.2%     -    0s
H    0     0                       0.0002306    0.00001  93.6%     -    0s
     0     2    0.00009    0    3    0.00023    0.00009  59.9%     -    0s
H   41    39                       0.0001472    0.00010  35.3%  22.3    0s
*   41    39               8       0.0001472    0.00010  35.3%  22.8    0s
H   76    48                       0.0001455    0.00010  34.2%  18.6    0s
*   76    48              12       0.0001455    0.00010  34.2%  18.6    0s
H  154     5                       0.0001454    0.00010  33.1%   9.5    0s
*  154     5              19       0.0001454    0.00010  30.4%   9.5    0s

Cutting planes:
  Implied bound: 4
  Flow cover: 1
  Inf proof: 6
  RLT: 1

Explored 170 nodes (3021 simplex iterations) in 0.72 seconds (0.61 work units)
Thread count was 4 (of 128 available processors)

Solution count 6: 0.000145447 0.000145497 0.000147229 ... 0.000268488

Optimal solution found (tolerance 1.00e-03)
Best objective 1.454468059523e-04, best bound 1.454348117035e-04, gap 0.0082%
